NAME: random-12-31044
TYPE: TSP
COMMENT: size=12 seed=31044
DIMENSION: 26
EDGE_WEIGHT_TYPE: EUC_2D
NODE_COORD_SECTION
+0 508 255
-0 508 255
+1 187 309
-1 316 754
+2 676 844
-2 825 32
+3 636 617
-3 55 864
+4 143 90
-4 366 403
+5 212 396
-5 448 960
+6 244 73
-6 818 132
+7 546 491
-7 695 677
+8 419 717
-8 690 569
+9 643 702
-9 521 497
+10 705 774
-10 494 395
+11 765 148
-11 656 796
+12 34 799
-12 679 722
PRECEDENCE_SECTION
+0 -0
+1 -1
+2 -2
+3 -3
+4 -4
+5 -5
+6 -6
+7 -7
+8 -8
+9 -9
+10 -10
+11 -11
+12 -12
EOF
